2 
5 
8 
11 
18 
19 
22 2147483652 2147483664 2147483684 2147483692 
23 
24 
25 2147483652 2147483664 2147483684 2147483692 
26 2147483652 2147483664 2147483684 2147483692 
27 2147483652 2147483664 2147483684 2147483692 
32 2147483652 2147483664 2147483684 2147483692 
49 2147483649 2147483655 2147483656 2147483665 
50 
51 
52 2147483649 2147483655 2147483656 2147483665 
53 2147483649 2147483655 2147483656 2147483663 2147483665 2147483683 2147483691 
54 2147483649 2147483655 2147483656 2147483663 2147483665 
57 2147483649 2147483655 2147483656 2147483663 2147483665 2147483683 2147483691 
61 
127 2147483649 2147483655 2147483656 2147483665 
128 2147483649 2147483655 2147483656 2147483665 
129 2147483649 2147483655 2147483656 2147483665 
130 2147483649 2147483655 2147483656 2147483665 
131 
132 
133 
134 
247 
248 
249 
250 
251 
252 
253 
254 
263 2147483652 2147483664 2147483684 2147483692 
264 2147483652 2147483664 2147483684 2147483692 
265 2147483652 2147483664 2147483684 2147483692 
266 2147483652 2147483664 2147483684 2147483692 
267 
268 
269 
270 
2147483649 2147483652 2147483653 2147483655 2147483656 2147483660 2147483663 2147483664 2147483665 2147483667 2147483675 2147483676 2147483683 2147483684 2147483685 2147483686 2147483691 2147483692 2147483693 2147483694 54 53 49 52 57 127 128 129 130 2147483652 2147483653 2147483655 2147483656 2147483660 2147483663 2147483664 2147483665 2147483667 2147483675 2147483676 2147483683 2147483684 2147483685 2147483686 2147483691 2147483692 2147483693 2147483694 
2147483652 2147483649 2147483649 2147483653 2147483655 2147483656 2147483660 2147483663 2147483664 2147483665 2147483667 2147483675 2147483676 2147483683 2147483684 2147483685 2147483686 2147483691 2147483692 2147483693 2147483694 22 26 32 25 27 263 264 265 266 2147483653 2147483655 2147483656 2147483660 2147483663 2147483664 2147483665 2147483667 2147483675 2147483676 2147483683 2147483684 2147483685 2147483686 2147483691 2147483692 2147483693 2147483694 
2147483653 2147483649 2147483652 2147483649 2147483652 2147483665 2147483675 2147483676 2147483665 2147483675 2147483676 
2147483655 2147483649 2147483652 2147483649 2147483652 2147483665 2147483683 2147483684 2147483685 57 53 49 52 54 127 128 129 130 2147483665 2147483683 2147483684 2147483685 
2147483656 2147483649 2147483652 2147483649 2147483652 2147483665 2147483691 2147483692 2147483693 57 53 49 52 54 127 128 129 130 2147483665 2147483691 2147483692 2147483693 
2147483660 2147483649 2147483652 2147483649 2147483652 2147483663 2147483664 2147483665 2147483663 2147483664 2147483665 
2147483663 2147483649 2147483652 2147483660 2147483649 2147483652 2147483660 2147483664 2147483665 54 57 53 2147483664 2147483665 
2147483664 2147483649 2147483652 2147483660 2147483663 2147483649 2147483652 2147483660 2147483663 2147483665 263 22 25 27 32 26 264 265 266 2147483665 
2147483665 2147483649 2147483652 2147483653 2147483655 2147483656 2147483660 2147483663 2147483664 2147483649 2147483652 2147483653 2147483655 2147483656 2147483660 2147483663 2147483664 2147483667 2147483675 2147483676 2147483683 2147483684 2147483685 2147483686 2147483691 2147483692 2147483693 2147483694 128 49 52 54 57 53 127 129 130 2147483667 2147483675 2147483676 2147483683 2147483684 2147483685 2147483686 2147483691 2147483692 2147483693 2147483694 
2147483667 2147483649 2147483652 2147483665 2147483649 2147483652 2147483665 
2147483673 
2147483675 2147483649 2147483652 2147483653 2147483665 2147483649 2147483652 2147483653 2147483665 2147483676 2147483676 
2147483676 2147483649 2147483652 2147483653 2147483665 2147483675 2147483649 2147483652 2147483653 2147483665 2147483675 
2147483683 2147483649 2147483652 2147483655 2147483665 2147483649 2147483652 2147483655 2147483665 57 53 
2147483684 2147483649 2147483652 2147483655 2147483665 2147483649 2147483652 2147483655 2147483665 2147483685 2147483686 22 25 27 32 26 263 264 265 266 2147483685 2147483686 
2147483685 2147483649 2147483652 2147483655 2147483665 2147483684 2147483649 2147483652 2147483655 2147483665 2147483684 
2147483686 2147483649 2147483652 2147483665 2147483684 2147483649 2147483652 2147483665 2147483684 
2147483691 2147483649 2147483652 2147483656 2147483665 2147483649 2147483652 2147483656 2147483665 57 53 
2147483692 2147483649 2147483652 2147483656 2147483665 2147483649 2147483652 2147483656 2147483665 2147483693 2147483694 22 25 27 32 26 263 264 265 266 2147483693 2147483694 
2147483693 2147483649 2147483652 2147483656 2147483665 2147483692 2147483649 2147483652 2147483656 2147483665 2147483692 
2147483694 2147483649 2147483652 2147483665 2147483692 2147483649 2147483652 2147483665 2147483692 
